DATASET = "thpack3";
INSTANCE = "091";

WIDTH = 233;
HEIGHT = 220;
LENGTH = 587;

NO_OF_SHAPES = 8;
size = [|
  86,65,57 |
  61,37,32 |
  39,33,27 |
  85,33,26 |
  101,94,42 |
  65,53,46 |
  76,72,39 |
  47,42,25 |
|];

verticality = [|
  1,1,1 |
  1,1,1 |
  1,1,1 |
  0,1,1 |
  0,0,1 |
  1,1,1 |
  1,1,1 |
  1,1,1 |
|];

box_count = [
  18,
  17,
  16,
  26,
  20,
  29,
  31,
  26,
];
